
Gurobi 10.0.1 (mac64[arm]) logging started Mon Sep 18 23:06:27 2023

Set parameter LogFile to value "scenario_returns/returns_gamma/results/M_j_c_-25/mip_log.txt"
Gurobi Optimizer version 10.0.1 build v10.0.1rc0 (mac64[arm])

CPU model: Apple M1
Thread count: 8 physical cores, 8 logical processors, using up to 8 threads

Optimize a model with 3388 rows, 12586 columns and 49544 nonzeros
Model fingerprint: 0xd3aae7d8
Model has 17956 general constraints
Variable types: 2 continuous, 12584 integer (816 binary)
Coefficient statistics:
  Matrix range     [6e-02, 3e+05]
  Objective range  [9e-02, 2e+05]
  Bounds range     [1e+00, 2e+07]
  RHS range        [2e+03, 2e+04]
  GenCon rhs range [1e+00, 1e+00]
  GenCon coe range [1e+00, 1e+00]

MIP start from previous solve did not produce a new incumbent solution
Processed MIP start in 3.63 seconds (4.30 work units)

Presolve removed 1738 rows and 6666 columns
Presolve time: 0.46s
Presolved: 1650 rows, 5920 columns, 23673 nonzeros
Presolved model has 4 SOS constraint(s)
Variable types: 0 continuous, 5920 integer (34 binary)

Root relaxation: objective 6.808199e+07, 6129 iterations, 0.06 seconds (0.07 work units)

    Nodes    |    Current Node    |     Objective Bounds      |     Work
 Expl Unexpl |  Obj  Depth IntInf | Incumbent    BestBd   Gap | It/Node Time

     0     0 6.8082e+07    0  339          - 6.8082e+07      -     -    4s
H    0     0                    7.708911e+07 6.9411e+07  10.0%     -    4s
H    0     0                    7.308464e+07 6.9411e+07  5.03%     -    4s
H    0     0                    7.287484e+07 6.9411e+07  4.75%     -    4s
     0     0 6.9520e+07    0  601 7.2875e+07 6.9520e+07  4.60%     -    4s
H    0     0                    7.276545e+07 6.9520e+07  4.46%     -    4s
     0     0 6.9545e+07    0  607 7.2765e+07 6.9545e+07  4.43%     -    4s
H    0     0                    7.114677e+07 6.9659e+07  2.09%     -    4s
     0     0 6.9728e+07    0  656 7.1147e+07 6.9728e+07  1.99%     -    4s
     0     0 6.9775e+07    0  711 7.1147e+07 6.9775e+07  1.93%     -    4s
     0     0 6.9776e+07    0  800 7.1147e+07 6.9776e+07  1.93%     -    4s
     0     0 6.9776e+07    0  813 7.1147e+07 6.9776e+07  1.93%     -    4s
     0     0 6.9815e+07    0  489 7.1147e+07 6.9815e+07  1.87%     -    4s
     0     0 6.9828e+07    0  489 7.1147e+07 6.9828e+07  1.85%     -    4s
     0     2 6.9828e+07    0  489 7.1147e+07 6.9828e+07  1.85%     -    4s
H   33    36                    7.093041e+07 7.0277e+07  0.92%   320    4s
    57    36 7.0930e+07    8  207 7.0930e+07 7.0277e+07  0.92%   255    5s
H   75    37                    7.093012e+07 7.0291e+07  0.90%   238    5s
H   76    37                    7.083316e+07 7.0291e+07  0.77%   236    5s
H 1474   672                    7.083316e+07 7.0553e+07  0.40%  45.0    7s
H 1509   640                    7.083316e+07 7.0553e+07  0.40%  56.7    8s

Cutting planes:
  Gomory: 3
  Implied bound: 298
  Projected implied bound: 11
  MIR: 35
  Flow cover: 71
  Relax-and-lift: 40

Explored 1770 nodes (100866 simplex iterations) in 9.31 seconds (11.78 work units)
Thread count was 8 (of 8 available processors)

Solution count 10: 7.08332e+07 7.08332e+07 7.08332e+07 ... 7.70891e+07

Optimal solution found (tolerance 1.00e-04)
Best objective 7.083315963000e+07, best bound 7.083315885642e+07, gap 0.0000%
